
numDies = 20; % numero de dies
m = 3; % num linacs
s = 8; % num sessions per pacient
p = 45; % num pacients
tolerancia = 3; % diferencia maxima diaSesio i separacio
solicitud = 14; % dies maxims fins primera visita

disponible = [|  6,  6,  5,  6,  3, 20, 20, 12, 17, 20, 28, 36, 32, 29, 30, 49, 49, 49, 49, 49
              |  9,  7, 11,  9,  6, 30, 20, 19, 19, 27, 35, 40, 32, 33, 38, 49, 49, 49, 49, 49
              | 14, 15, 11, 15,  9, 35, 21, 23, 21, 29, 40, 43, 41, 44, 39, 49, 49, 49, 49, 49 |]; % capacitat de cada linac

duracio = [| 2, 2, 2, 2, 2, 2, 2, 2
            | 2, 2, 2, 2, 2, 2, 2, 2
            | 2, 2, 2, 2, 2, 2, 2, 2
            | 2, 2, 2, 2, 2, 2, 2, 2
            | 2, 2, 2, 2, 2, 2, 2, 2
            | 2, 2, 2, 2, 2, 2, 2, 2
            | 2, 2, 2, 2, 2, 2, 2, 2
            | 2, 2, 2, 2, 2, 2, 2, 2
            | 2, 2, 2, 2, 2, 2, 2, 2
            | 2, 2, 2, 2, 2, 2, 2, 2
            | 2, 2, 2, 2, 2, 2, 2, 2
            | 2, 2, 2, 2, 2, 2, 2, 2
            | 2, 2, 2, 2, 2, 3, 3, 3
            | 2, 2, 2, 2, 2, 3, 3, 3
            | 2, 2, 2, 2, 2, 3, 3, 3
            | 2, 2, 2, 2, 2, 3, 3, 3
            | 2, 2, 2, 2, 2, 3, 3, 3
            | 2, 2, 2, 2, 2, 3, 3, 3
            | 2, 2, 2, 2, 2, 3, 3, 3
            | 2, 2, 2, 2, 2, 3, 3, 3
            | 2, 2, 2, 2, 2, 3, 3, 3
            | 2, 2, 2, 2, 2, 3, 3, 3
            | 2, 2, 2, 2, 2, 3, 3, 3
            | 2, 2, 2, 2, 2, 3, 3, 3
            | 2, 2, 2, 2, 2, 3, 3, 3
            | 2, 2, 2, 2, 2, 3, 3, 3
            | 2, 2, 2, 2, 2, 3, 3, 3
            | 2, 2, 2, 2, 2, 3, 3, 3
            | 3, 3, 3, 3, 3, 2, 2, 2
            | 3, 3, 3, 3, 3, 2, 2, 2
            | 3, 3, 3, 3, 3, 2, 2, 2
            | 3, 3, 3, 3, 3, 2, 2, 2
            | 3, 3, 3, 3, 3, 2, 2, 2
            | 3, 3, 3, 3, 3, 2, 2, 2
            | 3, 3, 3, 3, 3, 2, 2, 2
            | 3, 3, 3, 3, 3, 3, 3, 3
            | 3, 3, 3, 3, 3, 3, 3, 3
            | 3, 3, 3, 3, 3, 3, 3, 3
            | 3, 3, 3, 3, 3, 3, 3, 3
            | 3, 3, 3, 3, 3, 3, 3, 3
            | 3, 3, 3, 3, 3, 3, 3, 3
            | 3, 3, 3, 3, 3, 3, 3, 3
            | 3, 3, 3, 3, 3, 3, 3, 3
            | 3, 3, 3, 3, 3, 3, 3, 3
            | 3, 3, 3, 3, 3, 3, 3, 3 |]; % duracion de la sesion (2 o 3 instants de temps)(30 o 45 mins)

separacio = [| 1, 2, 2, 1, 1, 2, 2
              | 1, 2, 2, 1, 1, 2, 2
              | 1, 2, 2, 1, 1, 2, 2
              | 1, 2, 2, 1, 1, 2, 2
              | 1, 2, 2, 1, 1, 2, 2
              | 1, 2, 2, 1, 1, 2, 2
              | 1, 2, 2, 1, 1, 2, 2
              | 1, 2, 2, 1, 1, 2, 2
              | 1, 2, 2, 1, 1, 2, 2
              | 1, 2, 2, 1, 1, 2, 2
              | 1, 2, 2, 1, 1, 2, 2
              | 1, 2, 2, 1, 1, 2, 2
              | 3, 1, 3, 1, 1, 2, 1
              | 1, 2, 2, 1, 1, 2, 2
              | 1, 2, 2, 1, 1, 2, 2
              | 1, 2, 2, 1, 1, 2, 2
              | 1, 2, 2, 1, 1, 2, 2
              | 1, 2, 2, 1, 1, 2, 2
              | 1, 2, 1, 2, 1, 2, 2
              | 1, 2, 1, 2, 1, 2, 2
              | 1, 2, 1, 2, 1, 2, 2
              | 1, 2, 1, 2, 1, 2, 2
              | 3, 1, 3, 1, 1, 2, 1
              | 3, 1, 3, 1, 1, 2, 1
              | 3, 1, 3, 1, 1, 2, 1
              | 1, 2, 2, 1, 1, 2, 2
              | 1, 2, 2, 1, 1, 2, 2
              | 1, 2, 2, 1, 1, 2, 2
              | 1, 2, 2, 1, 1, 2, 2
              | 1, 2, 2, 1, 1, 2, 2
              | 1, 2, 2, 1, 1, 2, 2
              | 1, 2, 1, 2, 1, 2, 2
              | 1, 2, 1, 2, 1, 2, 2
              | 1, 2, 1, 2, 1, 2, 2
              | 1, 2, 1, 2, 1, 2, 2
              | 1, 2, 1, 2, 1, 2, 2
              | 1, 2, 1, 2, 1, 2, 2
              | 1, 2, 1, 2, 1, 2, 2
              | 3, 1, 3, 1, 1, 2, 1
              | 3, 1, 3, 1, 1, 2, 1
              | 3, 1, 3, 1, 1, 2, 1
              | 1, 2, 2, 1, 1, 2, 2
              | 1, 2, 2, 1, 1, 2, 2
              | 1, 2, 2, 1, 1, 2, 2
              | 1, 2, 1, 2, 1, 2, 2 |]; % separacio ideal entre sesions 

grup = [1, 1, 1, 1, 1, 1, 1, 1, 1, 1, 1, 1, 2, 3, 3, 3, 3, 3, 4, 4, 4, 4, 5, 5, 5, 6, 6, 6, 6, 6, 6, 7, 7, 7, 7, 7, 7, 7, 8, 8, 8, 9, 9, 9, 10]; % pacients amb mateix grup son identics